32	0

0	1	2
10	2	3	4
5	2	5	6
4	2	5	6
8	2	7	8
7	2	7	8
4	1	9
5	1	9
5	2	10	12
4	2	11	13
4	1	14
10	1	14
6	1	14
3	2	15	16
7	2	17	18
2	2	17	18
7	1	19
6	1	19
3	1	20
5	2	21	22
3	1	23
1	1	23
1	1	24
7	1	25
1	2	26	27
6	1	28
5	1	28
2	2	29	30
2	1	31
8	1	31
2	1	32
0	0
